6
15
0 15 15 15 15 15
0 1 2
0 2 3
0 3 4 
0 4 5
0 5 6
1 0 2
1 2 3
1 3 4 
1 4 5 
1 5 6
2 0 3
2 1 3
2 3 4
2 4 5
2 5 6
3 0 4
3 1 4
3 2 4
3 4 5
3 5 6
4 0 5
4 1 5
4 2 5
4 3 5
4 5 6
5 0 6
5 1 6
5 2 6
5 3 6
5 4 6
